SAT
-20 -10 19 -65 -99 -96 88 67 -28 -59 11 -9 2 -92 -97 85 -37 21 -58 100 -80 -86 52 26 -53 -64 41 -17 94 47 -55 7 -31 33 27 22 -90 -68 79 -14 -93 54 -84 -89 -30 24 -62 -98 -91 -45 43 49 -87 -70 -6 -61 95 35 -63 39 -71 40 50 -78 -74 81 -51 -36 25 73 60 -69 3 23 5 32 38 18 -1 75 46 44 -42 -8 -48 -83 -76 -13 -29 82 34 -57 16 12 -56 -72 4 77 66 -15 0
